\ Generated by MPModelProtoExporter
\   Name             : 
\   Format           : Free
\   Constraints      : 50
\   Variables        : 6
\     Binary         : 6
\     Integer        : 0
\     Continuous     : 0
Maximize
 Obj: +1 x___export__.mrp_workcenter_63_98a7a00b_Job_fb1e0_5 +1 x___export__.mrp_workcenter_63_98a7a00b_Job_b6492_4 +1 x_Job_fb1e0_5_Job_fb1e0_4_x___export__.mrp_workcenter_63_98a7a00b_Job_fb1e0_5___export__.mrp_workcenter_56_d6637dea +1 x_Job_fb1e0_5_Job_fb1e0_4_x___export__.mrp_workcenter_63_98a7a00b_Job_fb1e0_5___export__.mrp_workcenter_57_6faf5319 +1 x_Job_b6492_4_Job_b6492_3_x___export__.mrp_workcenter_63_98a7a00b_Job_b6492_4___export__.mrp_workcenter_56_d6637dea +1 x_Job_b6492_4_Job_b6492_3_x___export__.mrp_workcenter_63_98a7a00b_Job_b6492_4___export__.mrp_workcenter_57_6faf5319 
Subject to
 _2026_01_12_00_00_00_1_cons_rhs: +0.5 x_Job_fb1e0_5_Job_fb1e0_4_x___export__.mrp_workcenter_63_98a7a00b_Job_fb1e0_5___export__.mrp_workcenter_56_d6637dea +0.5 x_Job_fb1e0_5_Job_fb1e0_4_x___export__.mrp_workcenter_63_98a7a00b_Job_fb1e0_5___export__.mrp_workcenter_57_6faf5319  <= 32
 _2026_01_12_00_00_00_1_cons_lhs: +0.5 x_Job_fb1e0_5_Job_fb1e0_4_x___export__.mrp_workcenter_63_98a7a00b_Job_fb1e0_5___export__.mrp_workcenter_56_d6637dea +0.5 x_Job_fb1e0_5_Job_fb1e0_4_x___export__.mrp_workcenter_63_98a7a00b_Job_fb1e0_5___export__.mrp_workcenter_57_6faf5319  >= 0
 _2026_01_12_00_00_00_2_cons_rhs:  <= 16
 _2026_01_12_00_00_00_2_cons_lhs:  >= 0
 _2026_01_13_00_00_00_1_cons_rhs: +1.3 x_Job_b6492_4_Job_b6492_3_x___export__.mrp_workcenter_63_98a7a00b_Job_b6492_4___export__.mrp_workcenter_56_d6637dea +1.3 x_Job_b6492_4_Job_b6492_3_x___export__.mrp_workcenter_63_98a7a00b_Job_b6492_4___export__.mrp_workcenter_57_6faf5319  <= 32
 _2026_01_13_00_00_00_1_cons_lhs: +1.3 x_Job_b6492_4_Job_b6492_3_x___export__.mrp_workcenter_63_98a7a00b_Job_b6492_4___export__.mrp_workcenter_56_d6637dea +1.3 x_Job_b6492_4_Job_b6492_3_x___export__.mrp_workcenter_63_98a7a00b_Job_b6492_4___export__.mrp_workcenter_57_6faf5319  >= 0
 _2026_01_13_00_00_00_2_cons_rhs: +1.5 x_Job_b6492_4_Job_b6492_3_x___export__.mrp_workcenter_63_98a7a00b_Job_b6492_4___export__.mrp_workcenter_56_d6637dea +1.5 x_Job_b6492_4_Job_b6492_3_x___export__.mrp_workcenter_63_98a7a00b_Job_b6492_4___export__.mrp_workcenter_57_6faf5319  <= 16
 _2026_01_13_00_00_00_2_cons_lhs: +1.5 x_Job_b6492_4_Job_b6492_3_x___export__.mrp_workcenter_63_98a7a00b_Job_b6492_4___export__.mrp_workcenter_56_d6637dea +1.5 x_Job_b6492_4_Job_b6492_3_x___export__.mrp_workcenter_63_98a7a00b_Job_b6492_4___export__.mrp_workcenter_57_6faf5319  >= 0
 _2026_01_14_00_00_00_1_cons_rhs: +1.5 x_Job_b6492_4_Job_b6492_3_x___export__.mrp_workcenter_63_98a7a00b_Job_b6492_4___export__.mrp_workcenter_56_d6637dea +1.5 x_Job_b6492_4_Job_b6492_3_x___export__.mrp_workcenter_63_98a7a00b_Job_b6492_4___export__.mrp_workcenter_57_6faf5319  <= 32
 _2026_01_14_00_00_00_1_cons_lhs: +1.5 x_Job_b6492_4_Job_b6492_3_x___export__.mrp_workcenter_63_98a7a00b_Job_b6492_4___export__.mrp_workcenter_56_d6637dea +1.5 x_Job_b6492_4_Job_b6492_3_x___export__.mrp_workcenter_63_98a7a00b_Job_b6492_4___export__.mrp_workcenter_57_6faf5319  >= 0
 _2026_01_14_00_00_00_2_cons_rhs: +0.8 x_Job_b6492_4_Job_b6492_3_x___export__.mrp_workcenter_63_98a7a00b_Job_b6492_4___export__.mrp_workcenter_56_d6637dea +0.8 x_Job_b6492_4_Job_b6492_3_x___export__.mrp_workcenter_63_98a7a00b_Job_b6492_4___export__.mrp_workcenter_57_6faf5319  <= 16
 _2026_01_14_00_00_00_2_cons_lhs: +0.8 x_Job_b6492_4_Job_b6492_3_x___export__.mrp_workcenter_63_98a7a00b_Job_b6492_4___export__.mrp_workcenter_56_d6637dea +0.8 x_Job_b6492_4_Job_b6492_3_x___export__.mrp_workcenter_63_98a7a00b_Job_b6492_4___export__.mrp_workcenter_57_6faf5319  >= 0
 _2026_01_15_00_00_00_1_cons_rhs:  <= 32
 _2026_01_15_00_00_00_1_cons_lhs:  >= 0
 _2026_01_15_00_00_00_2_cons_rhs:  <= 16
 _2026_01_15_00_00_00_2_cons_lhs:  >= 0
 _2026_01_16_00_00_00_1_cons_rhs:  <= 32
 _2026_01_16_00_00_00_1_cons_lhs:  >= 0
 _2026_01_16_00_00_00_2_cons_rhs:  <= 16
 _2026_01_16_00_00_00_2_cons_lhs:  >= 0
 _2026_01_19_00_00_00_1_cons_rhs:  <= 32
 _2026_01_19_00_00_00_1_cons_lhs:  >= 0
 _2026_01_19_00_00_00_2_cons_rhs:  <= 16
 _2026_01_19_00_00_00_2_cons_lhs:  >= 0
 _2026_01_20_00_00_00_1_cons_rhs:  <= 32
 _2026_01_20_00_00_00_1_cons_lhs:  >= 0
 _2026_01_20_00_00_00_2_cons_rhs:  <= 16
 _2026_01_20_00_00_00_2_cons_lhs:  >= 0
 _2026_01_21_00_00_00_1_cons_rhs:  <= 32
 _2026_01_21_00_00_00_1_cons_lhs:  >= 0
 _2026_01_21_00_00_00_2_cons_rhs:  <= 16
 _2026_01_21_00_00_00_2_cons_lhs:  >= 0
 _2026_01_22_00_00_00_1_cons_rhs:  <= 32
 _2026_01_22_00_00_00_1_cons_lhs:  >= 0
 _2026_01_22_00_00_00_2_cons_rhs:  <= 16
 _2026_01_22_00_00_00_2_cons_lhs:  >= 0
 _2026_01_23_00_00_00_1_cons_rhs:  <= 32
 _2026_01_23_00_00_00_1_cons_lhs:  >= 0
 _2026_01_23_00_00_00_2_cons_rhs:  <= 16
 _2026_01_23_00_00_00_2_cons_lhs:  >= 0
 _2026_01_26_00_00_00_1_cons_rhs:  <= 32
 _2026_01_26_00_00_00_1_cons_lhs:  >= 0
 _2026_01_26_00_00_00_2_cons_rhs:  <= 16
 _2026_01_26_00_00_00_2_cons_lhs:  >= 0
 _2026_01_27_00_00_00_1_cons_rhs:  <= 32
 _2026_01_27_00_00_00_1_cons_lhs:  >= 0
 _2026_01_27_00_00_00_2_cons_rhs:  <= 16
 _2026_01_27_00_00_00_2_cons_lhs:  >= 0
 _2026_01_28_00_00_00_1_cons_rhs:  <= 32
 _2026_01_28_00_00_00_1_cons_lhs:  >= 0
 _2026_01_28_00_00_00_2_cons_rhs:  <= 16
 _2026_01_28_00_00_00_2_cons_lhs:  >= 0
 _2026_01_29_00_00_00_1_cons_rhs:  <= 32
 _2026_01_29_00_00_00_1_cons_lhs:  >= 0
 _2026_01_29_00_00_00_2_cons_rhs:  <= 16
 _2026_01_29_00_00_00_2_cons_lhs:  >= 0
 _2026_01_30_00_00_00_1_cons_rhs:  <= 32
 _2026_01_30_00_00_00_1_cons_lhs:  >= 0
 _2026_01_30_00_00_00_2_cons_rhs:  <= 16
 _2026_01_30_00_00_00_2_cons_lhs:  >= 0
 _2026_02_02_00_00_00_1_cons_rhs:  <= 32
 _2026_02_02_00_00_00_1_cons_lhs:  >= 0
 _2026_02_02_00_00_00_2_cons_rhs:  <= 16
 _2026_02_02_00_00_00_2_cons_lhs:  >= 0
 _2026_02_03_00_00_00_1_cons_rhs:  <= 32
 _2026_02_03_00_00_00_1_cons_lhs:  >= 0
 _2026_02_03_00_00_00_2_cons_rhs:  <= 16
 _2026_02_03_00_00_00_2_cons_lhs:  >= 0
 _2026_02_04_00_00_00_1_cons_rhs:  <= 32
 _2026_02_04_00_00_00_1_cons_lhs:  >= 0
 _2026_02_04_00_00_00_2_cons_rhs:  <= 16
 _2026_02_04_00_00_00_2_cons_lhs:  >= 0
 _2026_02_05_00_00_00_1_cons_rhs:  <= 32
 _2026_02_05_00_00_00_1_cons_lhs:  >= 0
 _2026_02_05_00_00_00_2_cons_rhs:  <= 16
 _2026_02_05_00_00_00_2_cons_lhs:  >= 0
 _2026_02_06_00_00_00_1_cons_rhs:  <= 32
 _2026_02_06_00_00_00_1_cons_lhs:  >= 0
 _2026_02_06_00_00_00_2_cons_rhs:  <= 16
 _2026_02_06_00_00_00_2_cons_lhs:  >= 0
 Job_fb1e0_5_cons_rhs: +1 x___export__.mrp_workcenter_63_98a7a00b_Job_fb1e0_5  <= 1
 Job_fb1e0_5_cons_lhs: +1 x___export__.mrp_workcenter_63_98a7a00b_Job_fb1e0_5  >= 0
 Job_b6492_4_cons_rhs: +1 x___export__.mrp_workcenter_63_98a7a00b_Job_b6492_4  <= 1
 Job_b6492_4_cons_lhs: +1 x___export__.mrp_workcenter_63_98a7a00b_Job_b6492_4  >= 0
 Job_fb1e0_5_Job_fb1e0_4_x___export__.mrp_workcenter_63_98a7a00b_Job_fb1e0_5_prec_cons1_rhs: -1 x___export__.mrp_workcenter_63_98a7a00b_Job_fb1e0_5 +1 x_Job_fb1e0_5_Job_fb1e0_4_x___export__.mrp_workcenter_63_98a7a00b_Job_fb1e0_5___export__.mrp_workcenter_56_d6637dea +1 x_Job_fb1e0_5_Job_fb1e0_4_x___export__.mrp_workcenter_63_98a7a00b_Job_fb1e0_5___export__.mrp_workcenter_57_6faf5319  <= 0.001
 Job_fb1e0_5_Job_fb1e0_4_x___export__.mrp_workcenter_63_98a7a00b_Job_fb1e0_5_prec_cons1_lhs: -1 x___export__.mrp_workcenter_63_98a7a00b_Job_fb1e0_5 +1 x_Job_fb1e0_5_Job_fb1e0_4_x___export__.mrp_workcenter_63_98a7a00b_Job_fb1e0_5___export__.mrp_workcenter_56_d6637dea +1 x_Job_fb1e0_5_Job_fb1e0_4_x___export__.mrp_workcenter_63_98a7a00b_Job_fb1e0_5___export__.mrp_workcenter_57_6faf5319  >= 0
 Job_fb1e0_5_Job_fb1e0_4_x___export__.mrp_workcenter_63_98a7a00b_Job_fb1e0_5_prec_cons2_rhs: +17 x___export__.mrp_workcenter_63_98a7a00b_Job_fb1e0_5 -16 x_Job_fb1e0_5_Job_fb1e0_4_x___export__.mrp_workcenter_63_98a7a00b_Job_fb1e0_5___export__.mrp_workcenter_56_d6637dea -16 x_Job_fb1e0_5_Job_fb1e0_4_x___export__.mrp_workcenter_63_98a7a00b_Job_fb1e0_5___export__.mrp_workcenter_57_6faf5319  <= 983
 Job_fb1e0_5_Job_fb1e0_4_x___export__.mrp_workcenter_63_98a7a00b_Job_fb1e0_5_prec_cons2_lhs: +17 x___export__.mrp_workcenter_63_98a7a00b_Job_fb1e0_5 -16 x_Job_fb1e0_5_Job_fb1e0_4_x___export__.mrp_workcenter_63_98a7a00b_Job_fb1e0_5___export__.mrp_workcenter_56_d6637dea -16 x_Job_fb1e0_5_Job_fb1e0_4_x___export__.mrp_workcenter_63_98a7a00b_Job_fb1e0_5___export__.mrp_workcenter_57_6faf5319  >= 0
 Job_fb1e0_4_cons_rhs: +1 x_Job_fb1e0_5_Job_fb1e0_4_x___export__.mrp_workcenter_63_98a7a00b_Job_fb1e0_5___export__.mrp_workcenter_56_d6637dea +1 x_Job_fb1e0_5_Job_fb1e0_4_x___export__.mrp_workcenter_63_98a7a00b_Job_fb1e0_5___export__.mrp_workcenter_57_6faf5319  <= 1
 Job_fb1e0_4_cons_lhs: +1 x_Job_fb1e0_5_Job_fb1e0_4_x___export__.mrp_workcenter_63_98a7a00b_Job_fb1e0_5___export__.mrp_workcenter_56_d6637dea +1 x_Job_fb1e0_5_Job_fb1e0_4_x___export__.mrp_workcenter_63_98a7a00b_Job_fb1e0_5___export__.mrp_workcenter_57_6faf5319  >= 0
 Job_b6492_4_Job_b6492_3_x___export__.mrp_workcenter_63_98a7a00b_Job_b6492_4_prec_cons1_rhs: -1 x___export__.mrp_workcenter_63_98a7a00b_Job_b6492_4 +1 x_Job_b6492_4_Job_b6492_3_x___export__.mrp_workcenter_63_98a7a00b_Job_b6492_4___export__.mrp_workcenter_56_d6637dea +1 x_Job_b6492_4_Job_b6492_3_x___export__.mrp_workcenter_63_98a7a00b_Job_b6492_4___export__.mrp_workcenter_57_6faf5319  <= 0.001
 Job_b6492_4_Job_b6492_3_x___export__.mrp_workcenter_63_98a7a00b_Job_b6492_4_prec_cons1_lhs: -1 x___export__.mrp_workcenter_63_98a7a00b_Job_b6492_4 +1 x_Job_b6492_4_Job_b6492_3_x___export__.mrp_workcenter_63_98a7a00b_Job_b6492_4___export__.mrp_workcenter_56_d6637dea +1 x_Job_b6492_4_Job_b6492_3_x___export__.mrp_workcenter_63_98a7a00b_Job_b6492_4___export__.mrp_workcenter_57_6faf5319  >= 0
 Job_b6492_4_Job_b6492_3_x___export__.mrp_workcenter_63_98a7a00b_Job_b6492_4_prec_cons2_rhs: +66 x___export__.mrp_workcenter_63_98a7a00b_Job_b6492_4 -65 x_Job_b6492_4_Job_b6492_3_x___export__.mrp_workcenter_63_98a7a00b_Job_b6492_4___export__.mrp_workcenter_56_d6637dea -65 x_Job_b6492_4_Job_b6492_3_x___export__.mrp_workcenter_63_98a7a00b_Job_b6492_4___export__.mrp_workcenter_57_6faf5319  <= 983
 Job_b6492_4_Job_b6492_3_x___export__.mrp_workcenter_63_98a7a00b_Job_b6492_4_prec_cons2_lhs: +66 x___export__.mrp_workcenter_63_98a7a00b_Job_b6492_4 -65 x_Job_b6492_4_Job_b6492_3_x___export__.mrp_workcenter_63_98a7a00b_Job_b6492_4___export__.mrp_workcenter_56_d6637dea -65 x_Job_b6492_4_Job_b6492_3_x___export__.mrp_workcenter_63_98a7a00b_Job_b6492_4___export__.mrp_workcenter_57_6faf5319  >= 0
 Job_b6492_3_cons_rhs: +1 x_Job_b6492_4_Job_b6492_3_x___export__.mrp_workcenter_63_98a7a00b_Job_b6492_4___export__.mrp_workcenter_56_d6637dea +1 x_Job_b6492_4_Job_b6492_3_x___export__.mrp_workcenter_63_98a7a00b_Job_b6492_4___export__.mrp_workcenter_57_6faf5319  <= 1
 Job_b6492_3_cons_lhs: +1 x_Job_b6492_4_Job_b6492_3_x___export__.mrp_workcenter_63_98a7a00b_Job_b6492_4___export__.mrp_workcenter_56_d6637dea +1 x_Job_b6492_4_Job_b6492_3_x___export__.mrp_workcenter_63_98a7a00b_Job_b6492_4___export__.mrp_workcenter_57_6faf5319  >= 0
 MP1___Material_preparation___automatic_sawing_(ZGN_01)_Job_fb1e0_5_Job_b6492_4_conf_rhs: +1 x___export__.mrp_workcenter_63_98a7a00b_Job_fb1e0_5 +1 x___export__.mrp_workcenter_63_98a7a00b_Job_b6492_4  <= 1
 MP1___Material_preparation___automatic_sawing_(ZGN_01)_Job_fb1e0_5_Job_b6492_4_conf_lhs: +1 x___export__.mrp_workcenter_63_98a7a00b_Job_fb1e0_5 +1 x___export__.mrp_workcenter_63_98a7a00b_Job_b6492_4  >= 0
 MP1___Material_preparation___automatic_sawing_(ZGN_01)_Job_b6492_4_Job_fb1e0_5_conf_rhs: +1 x___export__.mrp_workcenter_63_98a7a00b_Job_fb1e0_5 +1 x___export__.mrp_workcenter_63_98a7a00b_Job_b6492_4  <= 1
 MP1___Material_preparation___automatic_sawing_(ZGN_01)_Job_b6492_4_Job_fb1e0_5_conf_lhs: +1 x___export__.mrp_workcenter_63_98a7a00b_Job_fb1e0_5 +1 x___export__.mrp_workcenter_63_98a7a00b_Job_b6492_4  >= 0
Bounds
 0 <= x___export__.mrp_workcenter_63_98a7a00b_Job_fb1e0_5 <= 1
 0 <= x___export__.mrp_workcenter_63_98a7a00b_Job_b6492_4 <= 1
 0 <= x_Job_fb1e0_5_Job_fb1e0_4_x___export__.mrp_workcenter_63_98a7a00b_Job_fb1e0_5___export__.mrp_workcenter_56_d6637dea <= 1
 0 <= x_Job_fb1e0_5_Job_fb1e0_4_x___export__.mrp_workcenter_63_98a7a00b_Job_fb1e0_5___export__.mrp_workcenter_57_6faf5319 <= 1
 0 <= x_Job_b6492_4_Job_b6492_3_x___export__.mrp_workcenter_63_98a7a00b_Job_b6492_4___export__.mrp_workcenter_56_d6637dea <= 1
 0 <= x_Job_b6492_4_Job_b6492_3_x___export__.mrp_workcenter_63_98a7a00b_Job_b6492_4___export__.mrp_workcenter_57_6faf5319 <= 1
Binaries
 x___export__.mrp_workcenter_63_98a7a00b_Job_fb1e0_5
 x___export__.mrp_workcenter_63_98a7a00b_Job_b6492_4
 x_Job_fb1e0_5_Job_fb1e0_4_x___export__.mrp_workcenter_63_98a7a00b_Job_fb1e0_5___export__.mrp_workcenter_56_d6637dea
 x_Job_fb1e0_5_Job_fb1e0_4_x___export__.mrp_workcenter_63_98a7a00b_Job_fb1e0_5___export__.mrp_workcenter_57_6faf5319
 x_Job_b6492_4_Job_b6492_3_x___export__.mrp_workcenter_63_98a7a00b_Job_b6492_4___export__.mrp_workcenter_56_d6637dea
 x_Job_b6492_4_Job_b6492_3_x___export__.mrp_workcenter_63_98a7a00b_Job_b6492_4___export__.mrp_workcenter_57_6faf5319
End
